100
32
9
10
1
16
20
3
5
5
18
9
25
9
2
11
14
8
3
2
19
1
9
8
1
1
16
17
2
17
5
2
1
2
1
4
4
4
2
18
1
1
3
2
1
1
18
1
17
8
1
18
2
5
1
5
1
3
2
2
18
2
1
3
2
1
3
5
1
2
1
2
1
2
1
21
1
1
1
3
2
2
2
4
5
5
1
3
1
4
1
1
3
4
1
18
3
1
3
3
3
1